This is Ipopt version 3.14.14, running with linear solver MUMPS 5.6.2.

Number of nonzeros in equality constraint Jacobian...:     6208
Number of nonzeros in inequality constraint Jacobian.:      240
Number of nonzeros in Lagrangian Hessian.............:     2880

Total number of variables............................:     1980
                     variables with only lower bounds:      960
                variables with lower and upper bounds:       60
                     variables with only upper bounds:        0
Total number of equality constraints.................:     1920
Total number of inequality constraints...............:      240
        inequality constraints with only lower bounds:        0
   inequality constraints with lower and upper bounds:        0
        inequality constraints with only upper bounds:      240

iter    objective    inf_pr   inf_du lg(mu)  ||d||  lg(rg) alpha_du alpha_pr  ls
   0  4.0000000e+01 9.90e-01 4.08e+00  -1.0 0.00e+00    -  0.00e+00 0.00e+00   0
   1  8.4848423e+00 7.05e-01 1.94e+02  -1.0 9.90e-01    -  1.10e-02 2.88e-01f  1
   2  7.5628758e+00 6.73e-01 1.87e+02  -1.0 7.05e-01    -  2.22e-01 4.53e-02f  1
   3  5.6864171e+00 4.95e-01 1.56e+02  -1.0 6.73e-01    -  8.94e-01 2.65e-01f  1
   4  5.6848350e+00 4.94e-01 1.36e+03  -1.0 5.33e-01    -  6.80e-02 1.49e-03h  1
   5  6.0604491e+00 4.84e-01 1.08e+03  -1.0 3.82e+00    -  1.08e-03 2.16e-02h  1
   6  6.0975876e+00 4.83e-01 1.11e+03  -1.0 2.18e+00    -  4.32e-03 1.86e-03h  1
   7  6.4984531e+00 4.72e-01 1.07e+03  -1.0 3.36e+00    -  1.53e-02 2.30e-02h  1
   8  6.7266884e+00 4.66e-01 1.02e+03  -1.0 3.28e+00    -  1.22e-02 1.19e-02h  1
   9  7.0904315e+00 4.58e-01 1.30e+03  -1.0 3.07e+00    -  1.03e-01 1.77e-02h  1
iter    objective    inf_pr   inf_du lg(mu)  ||d||  lg(rg) alpha_du alpha_pr  ls
  10  9.0906348e+00 4.22e-01 1.05e+03  -1.0 2.20e+00    -  9.92e-03 7.78e-02h  1
  11  9.4749389e+00 4.16e-01 1.05e+03  -1.0 1.88e+00    -  2.61e-02 1.37e-02h  1
  12  1.0558322e+01 4.01e-01 1.02e+03  -1.0 1.83e+00    -  5.78e-02 3.71e-02h  1
  13  1.2564054e+01 3.76e-01 9.56e+02  -1.0 1.69e+00    -  6.73e-02 6.26e-02h  1
  14  1.2939571e+01 3.72e-01 9.46e+02  -1.0 1.33e+00    -  1.23e-02 1.02e-02h  1
  15  2.2000901e+01 2.76e-01 7.20e+02  -1.0 8.76e-01    -  9.03e-02 2.58e-01h  1
  16  3.3140635e+01 1.63e-01 5.27e+02  -1.0 6.19e-01    -  1.55e-01 4.09e-01h  1
  17  4.1655253e+01 8.00e-02 4.81e+02  -1.0 4.90e-01    -  8.02e-02 5.09e-01h  1
  18  4.6678538e+01 4.35e-02 4.17e+02  -1.0 4.04e-01    -  1.31e-01 4.56e-01h  1
  19  4.9807259e+01 2.75e-02 3.31e+02  -1.0 5.23e-01    -  1.97e-01 3.67e-01h  1
iter    objective    inf_pr   inf_du lg(mu)  ||d||  lg(rg) alpha_du alpha_pr  ls
  20  5.1073664e+01 2.17e-02 2.38e+02  -1.0 4.66e-01    -  2.79e-01 2.10e-01h  1
  21  5.3438052e+01 1.44e-02 3.21e+02  -1.0 6.61e-01    -  9.92e-02 3.39e-01h  1
  22  5.5299708e+01 9.81e-03 1.07e+03  -1.0 6.32e-01    -  4.64e-02 3.18e-01h  1
  23  5.6328115e+01 8.22e-03 9.37e+02  -1.0 6.49e-01    -  2.21e-01 1.62e-01h  1
  24  5.7420203e+01 6.92e-03 7.84e+02  -1.0 4.42e-01    -  1.39e-01 1.58e-01h  1
  25  5.8644855e+01 5.69e-03 6.42e+02  -1.0 4.59e-01    -  1.12e-01 1.78e-01h  1
  26  6.0366086e+01 4.11e-03 5.55e+02  -1.0 4.15e-01    -  9.22e-02 2.78e-01h  1
  27  6.1635626e+01 3.14e-03 6.02e+02  -1.0 7.83e-01    -  1.41e-01 2.35e-01h  1
  28  6.2708564e+01 2.52e-03 6.51e+02  -1.0 9.52e-01    -  1.46e-01 1.97e-01h  1
  29  6.3966715e+01 1.97e-03 8.65e+02  -1.0 7.01e-01    -  1.27e-01 2.19e-01h  1
iter    objective    inf_pr   inf_du lg(mu)  ||d||  lg(rg) alpha_du alpha_pr  ls
  30  6.4876333e+01 1.64e-03 9.46e+02  -1.0 6.69e-01    -  1.22e-01 1.66e-01h  1
  31  6.6045806e+01 1.29e-03 1.09e+03  -1.0 1.10e+00    -  1.58e-01 2.16e-01h  1
  32  6.6916514e+01 1.06e-03 1.69e+03  -1.0 6.87e-01    -  7.57e-02 1.79e-01h  1
  33  6.8055084e+01 8.35e-04 1.17e+03  -1.0 1.07e+00    -  2.28e-01 2.10e-01h  1
  34  6.9697939e+01 5.59e-04 2.09e+03  -1.0 1.27e+00    -  2.21e-01 3.31e-01h  1
  35  7.0779716e+01 5.44e-04 4.10e+03  -1.0 1.36e+00    -  2.01e-01 3.58e-01h  1
  36  7.1297846e+01 5.85e-04 8.12e+03  -1.0 1.33e+00    -  1.98e-01 4.05e-01h  1
  37  7.1380191e+01 6.02e-04 1.43e+04  -1.0 1.28e+00    -  2.11e-01 4.18e-01h  1
  38  7.1222475e+01 6.75e-04 2.52e+04  -1.0 1.09e+00    -  2.53e-01 4.78e-01h  1
  39  7.0868451e+01 7.52e-04 4.98e+04  -1.0 8.89e-01    -  3.06e-01 5.66e-01h  1
iter    objective    inf_pr   inf_du lg(mu)  ||d||  lg(rg) alpha_du alpha_pr  ls
  40  7.0407942e+01 5.94e-04 9.63e+04  -1.0 5.68e-01    -  5.03e-01 7.53e-01h  1
  41  7.0366078e+01 2.75e-04 2.81e+03  -1.0 2.45e-01    -  1.00e+00 1.00e+00h  1
  42  7.0407258e+01 1.16e-05 4.70e+00  -1.0 8.16e-02    -  1.00e+00 1.00e+00h  1
  43  6.9659105e+01 5.96e-05 1.36e+06  -5.7 8.36e-02    -  8.64e-01 1.00e+00f  1
  44  6.9065332e+01 1.11e-04 5.07e+05  -5.7 2.43e-01    -  6.28e-01 5.68e-01f  1
  45  6.8648334e+01 7.51e-05 1.66e+05  -5.7 2.26e-01    -  6.74e-01 6.67e-01f  1
  46  6.8475377e+01 2.82e-05 4.99e+04  -5.7 2.24e-01    -  6.99e-01 7.19e-01f  1
  47  6.8428511e+01 8.25e-06 1.45e+04  -5.7 2.28e-01    -  7.09e-01 7.38e-01f  1
  48  6.8413056e+01 5.09e-07 4.14e+03  -5.7 2.25e-01    -  7.15e-01 9.62e-01f  1
  49  6.8412502e+01 2.25e-08 5.80e-01  -5.7 1.19e-01    -  1.00e+00 1.00e+00f  1
iter    objective    inf_pr   inf_du lg(mu)  ||d||  lg(rg) alpha_du alpha_pr  ls
  50  6.8412505e+01 1.43e-10 5.23e-03  -5.7 6.45e-04    -  1.00e+00 1.00e+00h  1
  51  6.8412505e+01 2.58e-15 9.16e-08  -5.7 8.17e-07    -  1.00e+00 1.00e+00h  1
  52  6.8412406e+01 5.52e-12 5.93e-01  -8.6 3.65e-03    -  9.97e-01 1.00e+00f  1
  53  6.8412406e+01 1.04e-16 1.40e-09  -8.6 1.70e-05    -  1.00e+00 1.00e+00h  1

Number of Iterations....: 53

                                   (scaled)                 (unscaled)
Objective...............:   6.8412405936766646e+01    6.8412405936766646e+01
Dual infeasibility......:   1.4025743568955515e-09    1.4025743568955515e-09
Constraint violation....:   1.0408340855860843e-16    1.0408340855860843e-16
Variable bound violation:   8.6049059961720891e-09    8.6049059961720891e-09
Complementarity.........:   2.5059567218063881e-09    2.5059567218063881e-09
Overall NLP error.......:   2.5059567218063881e-09    2.5059567218063881e-09


Number of objective function evaluations             = 54
Number of objective gradient evaluations             = 54
Number of equality constraint evaluations            = 54
Number of inequality constraint evaluations          = 54
Number of equality constraint Jacobian evaluations   = 54
Number of inequality constraint Jacobian evaluations = 54
Number of Lagrangian Hessian evaluations             = 53
Total seconds in IPOPT (w/o function evaluations)    =      0.457
Total seconds in NLP function evaluations            =      0.090


Timing Statistics:

OverallAlgorithm....................:      0.535 (sys:      0.013 wall:      0.548)
 PrintProblemStatistics.............:      0.000 (sys:      0.000 wall:      0.000)
 InitializeIterates.................:      0.011 (sys:      0.000 wall:      0.011)
 UpdateHessian......................:      0.053 (sys:      0.003 wall:      0.056)
 OutputIteration....................:      0.003 (sys:      0.000 wall:      0.003)
 UpdateBarrierParameter.............:      0.001 (sys:      0.000 wall:      0.002)
 ComputeSearchDirection.............:      0.413 (sys:      0.007 wall:      0.420)
 ComputeAcceptableTrialPoint........:      0.032 (sys:      0.001 wall:      0.033)
 AcceptTrialPoint...................:      0.002 (sys:      0.000 wall:      0.002)
 CheckConvergence...................:      0.018 (sys:      0.001 wall:      0.019)
PDSystemSolverTotal.................:      0.410 (sys:      0.007 wall:      0.417)
 PDSystemSolverSolveOnce............:      0.398 (sys:      0.006 wall:      0.405)
 ComputeResiduals...................:      0.008 (sys:      0.000 wall:      0.008)
 StdAugSystemSolverMultiSolve.......:      0.404 (sys:      0.006 wall:      0.411)
 LinearSystemScaling................:      0.000 (sys:      0.000 wall:      0.000)
 LinearSystemSymbolicFactorization..:      0.004 (sys:      0.000 wall:      0.004)
 LinearSystemFactorization..........:      0.000 (sys:      0.000 wall:      0.000)
 LinearSystemBackSolve..............:      0.125 (sys:      0.001 wall:      0.127)
 LinearSystemStructureConverter.....:      0.000 (sys:      0.000 wall:      0.000)
  LinearSystemStructureConverterInit:      0.000 (sys:      0.000 wall:      0.000)
QualityFunctionSearch...............:      0.000 (sys:      0.000 wall:      0.000)
TryCorrector........................:      0.000 (sys:      0.000 wall:      0.000)
Task1...............................:      0.000 (sys:      0.000 wall:      0.000)
Task2...............................:      0.000 (sys:      0.000 wall:      0.000)
Task3...............................:      0.000 (sys:      0.000 wall:      0.000)
Task4...............................:      0.000 (sys:      0.000 wall:      0.000)
Task5...............................:      0.000 (sys:      0.000 wall:      0.000)
Task6...............................:      0.000 (sys:      0.000 wall:      0.000)
Function Evaluations................:      0.086 (sys:      0.004 wall:      0.090)
 Objective function.................:      0.001 (sys:      0.000 wall:      0.001)
 Objective function gradient........:      0.001 (sys:      0.000 wall:      0.001)
 Equality constraints...............:      0.021 (sys:      0.001 wall:      0.022)
 Inequality constraints.............:      0.001 (sys:      0.000 wall:      0.001)
 Equality constraint Jacobian.......:      0.001 (sys:      0.000 wall:      0.001)
 Inequality constraint Jacobian.....:      0.010 (sys:      0.000 wall:      0.010)
 Lagrangian Hessian.................:      0.052 (sys:      0.003 wall:      0.055)

EXIT: Optimal Solution Found.
